K	Q	MXK
1	50	5
2	50	5
3	50	5
4	50	5
5	50	5
6	50	5
7	50	5
8	50	5
9	50	5
10	50	5
11	50	5
12	50	5
13	50	5
14	50	5
15	50	5
16	50	5
17	50	5
18	50	5
19	50	5
20	50	5
21	50	5
22	50	5
23	50	5
24	50	5
25	50	5
26	50	5
27	50	5
28	50	5
29	50	5
30	50	5
31	50	5
32	50	5
33	50	5
34	50	5
35	50	5
36	50	5
37	50	5
38	50	5
39	50	5
40	50	5
41	50	5
42	50	5
43	50	5
44	50	5
45	50	5
46	50	5
47	50	5
48	50	5
49	50	5
50	50	5
51	50	5
52	50	5
53	50	5
54	50	5
